Instance0
Gap
100.00%
100.00%
75.42%
73.26%
63.62%
50.63%
49.64%
48.47%
46.43%
41.13%
39.44%
37.78%
36.83%
35.90%
35.43%
32.68%
31.43%
29.94%
29.12%
28.15%
22.43%
21.30%
19.92%
19.54%
19.17%
19.04%
18.30%
17.83%
17.65%
17.05%
16.62%
16.31%
16.00%
15.92%
15.91%
15.44%
15.21%
15.18%
14.96%
14.85%
14.75%
14.68%
14.63%
14.55%
14.52%
14.48%
CPXPARAM_MIP_Cuts_LiftProj-Gomory-Disjunctive:LiftProj 28
CPXPARAM_MIP_Cuts_LiftProj-Gomory-Disjunctive:Gomory 0
CPXPARAM_MIP_Cuts_LiftProj-Gomory-Disjunctive:Disjunctive 0
Instance1
Gap
100.00%
100.00%
100.00%
99.28%
95.32%
78.51%
72.57%
52.98%
51.17%
47.14%
44.37%
43.85%
42.67%
40.70%
39.80%
39.22%
38.14%
37.18%
34.66%
33.15%
32.90%
32.90%
32.72%
32.48%
32.48%
32.20%
31.92%
31.75%
31.64%
31.39%
31.02%
30.67%
30.52%
29.13%
28.90%
26.13%
25.85%
25.75%
25.75%
25.23%
25.23%
24.94%
24.84%
24.70%
24.65%
24.64%
24.57%
24.48%
24.39%
24.31%
24.25%
24.06%
24.03%
24.00%
12.95%
CPXPARAM_MIP_Cuts_LiftProj-Gomory-Disjunctive:LiftProj 32
CPXPARAM_MIP_Cuts_LiftProj-Gomory-Disjunctive:Gomory 0
CPXPARAM_MIP_Cuts_LiftProj-Gomory-Disjunctive:Disjunctive 0
Instance2
Gap
100.00%
100.00%
68.57%
59.57%
56.41%
53.37%
48.00%
47.89%
47.47%
46.25%
42.18%
34.28%
34.20%
34.06%
32.51%
26.71%
25.86%
24.98%
21.14%
20.62%
20.11%
19.14%
13.43%
12.52%
12.03%
11.34%
10.49%
9.62%
9.44%
8.45%
7.48%
7.16%
3.71%
3.63%
3.43%
2.37%
2.32%
1.94%
1.89%
1.86%
1.73%
1.69%
1.59%
1.47%
1.43%
1.39%
1.36%
1.36%
1.30%
0.68%
0.59%
0.50%
0.50%
0.49%
0.47%
0
CPXPARAM_MIP_Cuts_LiftProj-Gomory-Disjunctive:LiftProj 2
CPXPARAM_MIP_Cuts_LiftProj-Gomory-Disjunctive:Gomory 3
CPXPARAM_MIP_Cuts_LiftProj-Gomory-Disjunctive:Disjunctive 2
Instance3
Gap
100.00%
100.00%
99.62%
99.49%
93.70%
83.11%
77.08%
72.75%
17.32%
13.73%
13.72%
13.44%
12.47%
5.86%
2.55%
0.70%
0.70%
0.70%
0.70%
0.37%
0.37%
0.20%
0.20%
0.20%
0
CPXPARAM_MIP_Cuts_LiftProj-Gomory-Disjunctive:LiftProj 7
CPXPARAM_MIP_Cuts_LiftProj-Gomory-Disjunctive:Gomory 1
CPXPARAM_MIP_Cuts_LiftProj-Gomory-Disjunctive:Disjunctive 1
Instance4
Gap
100.00%
100.00%
100.00%
76.86%
72.59%
66.20%
63.78%
62.89%
61.89%
59.18%
56.90%
55.25%
54.43%
54.10%
53.59%
53.42%
52.27%
51.70%
50.66%
42.18%
41.08%
39.79%
39.24%
36.37%
35.47%
34.22%
33.05%
30.57%
29.07%
28.69%
27.86%
27.76%
27.39%
27.15%
26.84%
26.55%
16.31%
14.74%
14.38%
13.76%
12.29%
12.12%
12.00%
11.82%
11.65%
11.20%
11.07%
10.86%
10.57%
10.23%
10.10%
9.74%
9.71%
9.69%
9.60%
8.43%
8.40%
CPXPARAM_MIP_Cuts_LiftProj-Gomory-Disjunctive:LiftProj 35
CPXPARAM_MIP_Cuts_LiftProj-Gomory-Disjunctive:Gomory 0
CPXPARAM_MIP_Cuts_LiftProj-Gomory-Disjunctive:Disjunctive 0
Instance5
Gap
100.00%
100.00%
100.00%
99.40%
99.04%
88.93%
72.88%
72.53%
70.99%
70.31%
69.51%
61.23%
60.69%
59.15%
56.94%
55.54%
54.94%
53.97%
53.86%
46.39%
45.43%
44.87%
44.47%
43.61%
43.04%
42.13%
41.62%
41.00%
40.47%
40.34%
39.14%
38.79%
38.34%
37.22%
36.69%
36.53%
36.33%
33.23%
33.01%
32.91%
32.72%
32.55%
32.42%
31.91%
31.36%
30.46%
30.01%
29.93%
29.75%
29.70%
29.39%
29.34%
29.33%
29.06%
28.28%
28.12%
27.85%
27.78%
27.66%
27.52%
27.30%
27.20%
27.10%
27.04%
27.03%
21.53%
CPXPARAM_MIP_Cuts_LiftProj-Gomory-Disjunctive:LiftProj 37
CPXPARAM_MIP_Cuts_LiftProj-Gomory-Disjunctive:Gomory 0
CPXPARAM_MIP_Cuts_LiftProj-Gomory-Disjunctive:Disjunctive 0
Instance6
Gap
100.00%
100.00%
69.98%
65.46%
58.59%
52.14%
50.76%
42.64%
30.04%
28.25%
26.76%
25.54%
24.87%
21.52%
20.28%
14.71%
12.41%
11.71%
10.75%
10.50%
9.81%
8.77%
8.38%
7.42%
6.81%
6.12%
5.93%
5.41%
5.37%
5.30%
5.16%
2.96%
2.75%
2.56%
2.45%
2.44%
2.07%
1.97%
1.88%
1.75%
1.72%
1.41%
CPXPARAM_MIP_Cuts_LiftProj-Gomory-Disjunctive:LiftProj 23
CPXPARAM_MIP_Cuts_LiftProj-Gomory-Disjunctive:Gomory 0
CPXPARAM_MIP_Cuts_LiftProj-Gomory-Disjunctive:Disjunctive 0
Instance7
Gap
100.00%
100.00%
100.00%
99.99%
91.17%
69.85%
65.68%
57.48%
53.33%
51.54%
50.40%
48.73%
44.08%
40.73%
38.69%
38.33%
37.37%
35.55%
34.57%
33.09%
30.73%
28.65%
27.55%
25.21%
23.87%
22.79%
22.22%
21.67%
21.06%
20.97%
19.89%
19.65%
19.24%
18.87%
18.77%
18.77%
18.60%
17.82%
17.69%
16.41%
16.01%
15.92%
15.34%
15.17%
13.25%
13.21%
13.08%
12.80%
12.72%
12.64%
12.53%
12.51%
9.29%
CPXPARAM_MIP_Cuts_LiftProj-Gomory-Disjunctive:LiftProj 28
CPXPARAM_MIP_Cuts_LiftProj-Gomory-Disjunctive:Gomory 0
CPXPARAM_MIP_Cuts_LiftProj-Gomory-Disjunctive:Disjunctive 0
Instance8
Gap
100.00%
100.00%
59.21%
53.34%
46.01%
44.49%
43.81%
31.00%
30.65%
30.07%
29.89%
29.58%
29.46%
29.01%
28.66%
28.44%
28.02%
27.51%
27.37%
24.56%
23.94%
23.73%
23.36%
23.19%
22.85%
22.69%
21.97%
21.75%
21.47%
21.20%
20.53%
11.91%
11.70%
10.88%
10.66%
10.51%
10.39%
10.25%
9.96%
9.78%
9.74%
9.53%
9.42%
9.39%
8.99%
8.85%
8.80%
8.71%
8.64%
8.57%
8.57%
8.48%
8.45%
8.41%
CPXPARAM_MIP_Cuts_LiftProj-Gomory-Disjunctive:LiftProj 29
CPXPARAM_MIP_Cuts_LiftProj-Gomory-Disjunctive:Gomory 0
CPXPARAM_MIP_Cuts_LiftProj-Gomory-Disjunctive:Disjunctive 0
Instance9
Gap
100.00%
100.00%
100.00%
99.37%
99.21%
91.98%
89.17%
87.00%
85.66%
84.47%
81.19%
79.93%
74.41%
69.83%
68.99%
67.18%
62.09%
59.60%
58.27%
55.51%
54.68%
48.82%
47.41%
45.96%
45.39%
44.31%
42.86%
42.64%
42.04%
37.81%
36.78%
34.95%
34.56%
33.76%
33.24%
32.91%
32.41%
31.74%
31.47%
31.33%
29.30%
28.37%
27.70%
27.24%
26.63%
25.22%
25.09%
25.02%
24.77%
24.37%
23.96%
23.68%
22.08%
21.83%
21.65%
21.09%
20.69%
20.56%
20.48%
20.30%
20.26%
20.16%
20.14%
20.14%
CPXPARAM_MIP_Cuts_LiftProj-Gomory-Disjunctive:LiftProj 35
CPXPARAM_MIP_Cuts_LiftProj-Gomory-Disjunctive:Gomory 0
CPXPARAM_MIP_Cuts_LiftProj-Gomory-Disjunctive:Disjunctive 0
Instance10
Gap
100.00%
100.00%
62.81%
59.89%
50.08%
43.36%
39.97%
37.14%
34.82%
34.73%
30.68%
22.83%
21.45%
10.45%
8.76%
8.36%
7.82%
7.16%
7.16%
7.16%
6.17%
CPXPARAM_MIP_Cuts_LiftProj-Gomory-Disjunctive:LiftProj 12
CPXPARAM_MIP_Cuts_LiftProj-Gomory-Disjunctive:Gomory 2
CPXPARAM_MIP_Cuts_LiftProj-Gomory-Disjunctive:Disjunctive 1
Instance11
Gap
100.00%
100.00%
99.97%
99.93%
91.70%
87.52%
83.53%
76.13%
69.79%
68.87%
65.86%
63.84%
60.72%
58.63%
56.09%
54.32%
53.13%
51.27%
47.47%
46.27%
43.70%
40.97%
38.94%
38.00%
27.72%
26.86%
26.04%
24.72%
22.89%
21.72%
20.98%
20.30%
20.20%
20.01%
19.83%
19.37%
16.39%
16.35%
13.02%
12.94%
12.67%
12.59%
12.30%
12.20%
11.89%
6.04%
5.88%
5.76%
4.88%
4.81%
4.79%
4.78%
4.78%
4.78%
2.65%
2.14%
1.78%
1.60%
1.20%
1.17%
1.16%
1.15%
1.15%
1.14%
CPXPARAM_MIP_Cuts_LiftProj-Gomory-Disjunctive:LiftProj 3
CPXPARAM_MIP_Cuts_LiftProj-Gomory-Disjunctive:Gomory 0
CPXPARAM_MIP_Cuts_LiftProj-Gomory-Disjunctive:Disjunctive 5
Instance12
Gap
100.00%
100.00%
69.71%
64.56%
53.47%
52.82%
50.93%
34.76%
33.30%
30.92%
29.46%
27.72%
25.63%
24.60%
23.76%
21.98%
17.63%
16.75%
16.13%
15.47%
15.19%
15.02%
14.62%
14.13%
13.83%
13.12%
13.01%
11.73%
11.71%
11.63%
11.47%
11.21%
11.06%
10.32%
9.91%
9.80%
9.66%
9.57%
9.52%
9.42%
9.21%
9.11%
9.07%
9.00%
8.95%
8.87%
8.80%
8.79%
8.76%
5.12%
4.41%
CPXPARAM_MIP_Cuts_LiftProj-Gomory-Disjunctive:LiftProj 28
CPXPARAM_MIP_Cuts_LiftProj-Gomory-Disjunctive:Gomory 0
CPXPARAM_MIP_Cuts_LiftProj-Gomory-Disjunctive:Disjunctive 0
Instance13
Gap
100.00%
100.00%
100.00%
99.35%
99.30%
93.73%
89.55%
87.87%
68.68%
60.98%
60.11%
57.42%
54.31%
53.66%
52.22%
49.56%
43.71%
42.94%
40.32%
38.11%
35.38%
35.06%
34.56%
33.73%
33.05%
32.00%
31.45%
30.14%
29.87%
29.05%
27.98%
27.73%
26.85%
25.78%
25.34%
25.11%
24.57%
24.16%
23.87%
22.89%
22.63%
22.10%
21.77%
21.64%
21.46%
20.89%
20.70%
20.56%
20.31%
19.77%
19.24%
19.17%
18.98%
18.93%
18.78%
18.71%
18.50%
18.37%
18.29%
18.27%
18.21%
18.17%
18.17%
15.20%
CPXPARAM_MIP_Cuts_LiftProj-Gomory-Disjunctive:LiftProj 33
CPXPARAM_MIP_Cuts_LiftProj-Gomory-Disjunctive:Gomory 0
CPXPARAM_MIP_Cuts_LiftProj-Gomory-Disjunctive:Disjunctive 0
Instance14
Gap
100.00%
100.00%
67.25%
61.80%
55.95%
37.70%
31.01%
28.51%
27.19%
21.98%
20.32%
17.09%
15.98%
14.74%
12.51%
12.31%
11.61%
10.49%
10.21%
10.14%
5.98%
5.90%
5.46%
5.35%
5.22%
4.93%
4.74%
4.71%
4.42%
4.36%
4.20%
4.14%
4.05%
3.99%
3.98%
3.95%
3.90%
3.90%
3.90%
3.39%
3.39%
3.39%
3.28%
1.23%
0.96%
0.61%
0.58%
0.55%
0.55%
0
CPXPARAM_MIP_Cuts_LiftProj-Gomory-Disjunctive:LiftProj 12
CPXPARAM_MIP_Cuts_LiftProj-Gomory-Disjunctive:Gomory 0
CPXPARAM_MIP_Cuts_LiftProj-Gomory-Disjunctive:Disjunctive 4
Instance15
Gap
100.00%
100.00%
99.71%
99.31%
88.26%
80.57%
78.52%
76.83%
75.16%
72.86%
54.23%
45.07%
38.31%
37.57%
35.07%
34.39%
33.48%
30.49%
29.08%
28.61%
27.63%
27.34%
26.85%
26.21%
26.00%
25.73%
23.35%
21.73%
21.73%
20.87%
20.24%
20.11%
18.00%
17.19%
16.92%
16.64%
16.51%
16.19%
14.88%
14.33%
13.71%
13.41%
12.64%
12.56%
12.45%
12.31%
11.95%
11.92%
11.90%
9.58%
CPXPARAM_MIP_Cuts_LiftProj-Gomory-Disjunctive:LiftProj 27
CPXPARAM_MIP_Cuts_LiftProj-Gomory-Disjunctive:Gomory 0
CPXPARAM_MIP_Cuts_LiftProj-Gomory-Disjunctive:Disjunctive 0
Instance16
Gap
100.00%
100.00%
60.68%
59.49%
50.57%
30.64%
29.32%
26.60%
25.94%
20.98%
20.39%
19.59%
19.42%
19.25%
17.70%
17.45%
17.37%
16.93%
16.75%
16.45%
15.81%
15.53%
15.30%
14.70%
13.64%
13.45%
13.15%
12.85%
12.57%
12.42%
11.99%
11.73%
11.67%
11.48%
11.43%
11.36%
11.28%
11.17%
10.95%
10.80%
10.72%
10.54%
10.47%
10.43%
10.31%
10.30%
10.30%
10.29%
CPXPARAM_MIP_Cuts_LiftProj-Gomory-Disjunctive:LiftProj 27
CPXPARAM_MIP_Cuts_LiftProj-Gomory-Disjunctive:Gomory 0
CPXPARAM_MIP_Cuts_LiftProj-Gomory-Disjunctive:Disjunctive 0
Instance17
Gap
100.00%
100.00%
100.00%
99.43%
99.32%
93.50%
88.06%
85.83%
83.35%
80.93%
78.77%
76.39%
75.57%
72.04%
69.77%
65.07%
63.29%
61.78%
59.36%
57.94%
56.21%
55.29%
50.77%
49.64%
46.54%
43.46%
42.03%
41.12%
40.42%
38.65%
37.57%
35.75%
35.43%
34.81%
33.95%
33.53%
32.53%
32.38%
31.83%
31.60%
31.54%
31.37%
30.12%
29.82%
29.67%
29.56%
29.27%
29.10%
28.93%
28.64%
28.54%
28.30%
28.11%
27.98%
27.64%
27.53%
27.27%
27.16%
26.97%
26.75%
26.28%
26.19%
26.08%
26.05%
25.98%
25.95%
25.59%
CPXPARAM_MIP_Cuts_LiftProj-Gomory-Disjunctive:LiftProj 36
CPXPARAM_MIP_Cuts_LiftProj-Gomory-Disjunctive:Gomory 0
CPXPARAM_MIP_Cuts_LiftProj-Gomory-Disjunctive:Disjunctive 0
Instance18
Gap
100.00%
100.00%
57.84%
51.78%
44.43%
41.76%
40.37%
32.79%
31.90%
31.44%
30.93%
30.55%
29.07%
28.97%
28.27%
27.60%
26.60%
25.71%
23.61%
21.85%
21.51%
20.81%
20.54%
20.09%
19.34%
16.86%
16.27%
15.95%
15.60%
7.68%
7.54%
6.98%
6.90%
6.84%
6.68%
6.46%
5.98%
5.94%
5.75%
5.72%
5.62%
5.59%
5.51%
5.51%
5.28%
4.81%
4.71%
CPXPARAM_MIP_Cuts_LiftProj-Gomory-Disjunctive:LiftProj 25
CPXPARAM_MIP_Cuts_LiftProj-Gomory-Disjunctive:Gomory 0
CPXPARAM_MIP_Cuts_LiftProj-Gomory-Disjunctive:Disjunctive 0
Instance19
Gap
100.00%
100.00%
99.54%
99.29%
93.50%
85.29%
79.60%
75.82%
70.48%
62.65%
60.44%
52.16%
50.06%
47.09%
46.26%
39.79%
39.57%
31.76%
31.50%
26.45%
24.42%
23.22%
22.96%
22.41%
22.04%
22.01%
19.95%
19.43%
19.34%
18.93%
15.26%
14.79%
14.51%
14.05%
13.87%
13.20%
11.22%
10.45%
10.12%
9.82%
9.73%
9.53%
9.22%
8.34%
8.09%
7.91%
7.86%
7.82%
7.59%
7.14%
6.70%
6.59%
6.47%
6.40%
6.35%
6.21%
5.83%
5.76%
5.50%
5.23%
5.09%
5.03%
4.94%
4.91%
4.41%
4.40%
4.37%
4.37%
0.71%
CPXPARAM_MIP_Cuts_LiftProj-Gomory-Disjunctive:LiftProj 8
CPXPARAM_MIP_Cuts_LiftProj-Gomory-Disjunctive:Gomory 0
CPXPARAM_MIP_Cuts_LiftProj-Gomory-Disjunctive:Disjunctive 0
Instance20
Gap
100.00%
100.00%
89.26%
78.36%
62.02%
57.91%
57.45%
55.65%
48.13%
46.54%
43.79%
36.97%
34.50%
31.79%
28.60%
28.12%
27.33%
24.56%
22.60%
21.74%
21.45%
20.95%
19.93%
19.42%
17.12%
16.53%
16.25%
16.16%
15.93%
14.37%
13.78%
13.50%
13.03%
12.80%
12.48%
12.32%
12.32%
12.04%
11.29%
11.11%
10.90%
10.90%
10.81%
10.76%
10.52%
10.36%
10.29%
10.24%
10.07%
10.02%
9.91%
9.59%
9.52%
9.45%
9.16%
9.07%
9.02%
8.93%
8.62%
8.55%
8.50%
8.45%
8.44%
8.34%
CPXPARAM_MIP_Cuts_LiftProj-Gomory-Disjunctive:LiftProj 32
CPXPARAM_MIP_Cuts_LiftProj-Gomory-Disjunctive:Gomory 0
CPXPARAM_MIP_Cuts_LiftProj-Gomory-Disjunctive:Disjunctive 0
Instance21
Gap
100.00%
100.00%
100.00%
99.52%
98.54%
91.69%
80.59%
73.69%
71.37%
69.36%
65.91%
64.89%
64.46%
63.32%
62.82%
62.12%
60.01%
58.83%
56.81%
56.81%
55.73%
54.95%
54.05%
52.61%
51.78%
50.51%
49.42%
48.24%
47.43%
45.89%
45.24%
42.51%
42.27%
41.30%
40.50%
39.62%
39.11%
38.65%
37.96%
37.81%
37.38%
37.33%
36.90%
36.90%
36.42%
36.20%
35.98%
35.83%
35.58%
35.46%
35.25%
34.90%
34.68%
34.59%
34.15%
33.97%
33.81%
33.09%
32.78%
32.69%
32.54%
32.44%
32.25%
32.12%
32.10%
32.05%
32.05%
31.94%
31.88%
31.88%
31.76%
31.76%
31.67%
31.56%
31.56%
31.52%
24.90%
CPXPARAM_MIP_Cuts_LiftProj-Gomory-Disjunctive:LiftProj 39
CPXPARAM_MIP_Cuts_LiftProj-Gomory-Disjunctive:Gomory 0
CPXPARAM_MIP_Cuts_LiftProj-Gomory-Disjunctive:Disjunctive 1
Instance22
Gap
100.00%
100.00%
88.62%
70.72%
50.14%
40.81%
38.71%
35.86%
35.27%
32.38%
25.56%
24.52%
22.39%
19.34%
12.68%
10.89%
10.13%
9.21%
8.88%
7.89%
6.83%
5.28%
3.84%
3.49%
3.28%
3.13%
3.05%
3.02%
2.13%
1.95%
1.65%
1.55%
1.26%
1.17%
1.06%
0.64%
0.61%
0.61%
0.61%
0.52%
0.51%
0.49%
0.47%
0.46%
0.43%
0.43%
0.12%
CPXPARAM_MIP_Cuts_LiftProj-Gomory-Disjunctive:LiftProj 14
CPXPARAM_MIP_Cuts_LiftProj-Gomory-Disjunctive:Gomory 0
CPXPARAM_MIP_Cuts_LiftProj-Gomory-Disjunctive:Disjunctive 1
Instance23
Gap
100.00%
100.00%
99.78%
99.46%
91.84%
38.75%
31.18%
28.29%
27.32%
26.54%
24.61%
20.67%
17.36%
15.53%
11.37%
10.55%
9.31%
8.32%
6.80%
6.36%
6.12%
6.04%
6.04%
6.04%
5.08%
2.60%
2.31%
1.94%
1.64%
1.13%
1.09%
1.07%
1.04%
1.00%
0.97%
0.97%
0.91%
0.90%
0
CPXPARAM_MIP_Cuts_LiftProj-Gomory-Disjunctive:LiftProj 12
CPXPARAM_MIP_Cuts_LiftProj-Gomory-Disjunctive:Gomory 0
CPXPARAM_MIP_Cuts_LiftProj-Gomory-Disjunctive:Disjunctive 3
Instance24
Gap
100.00%
100.00%
84.00%
78.89%
64.26%
58.47%
53.93%
53.07%
52.54%
52.53%
51.49%
47.68%
43.22%
42.97%
41.01%
38.64%
38.25%
36.31%
32.29%
31.79%
29.56%
28.76%
28.08%
27.11%
18.59%
17.82%
16.06%
15.55%
15.44%
15.04%
14.77%
14.55%
14.29%
8.65%
8.43%
7.79%
7.59%
6.64%
6.29%
5.98%
5.37%
5.37%
5.09%
4.99%
4.70%
4.27%
4.19%
4.02%
4.01%
4.01%
3.82%
CPXPARAM_MIP_Cuts_LiftProj-Gomory-Disjunctive:LiftProj 27
CPXPARAM_MIP_Cuts_LiftProj-Gomory-Disjunctive:Gomory 0
CPXPARAM_MIP_Cuts_LiftProj-Gomory-Disjunctive:Disjunctive 1
Instance25
Gap
100.00%
100.00%
99.59%
99.18%
94.70%
90.60%
89.46%
86.19%
84.40%
73.00%
72.33%
71.26%
70.04%
64.50%
62.91%
59.28%
57.41%
56.41%
55.71%
55.16%
54.10%
52.37%
45.23%
45.02%
44.55%
43.53%
43.22%
43.20%
42.96%
42.57%
42.23%
41.92%
41.82%
41.27%
40.90%
40.53%
39.83%
39.51%
39.41%
39.09%
38.18%
38.06%
37.98%
37.93%
37.63%
37.60%
37.41%
37.29%
37.02%
36.94%
36.69%
36.53%
36.41%
36.41%
36.19%
36.03%
35.86%
35.70%
35.69%
35.53%
35.49%
35.47%
34.31%
28.01%
CPXPARAM_MIP_Cuts_LiftProj-Gomory-Disjunctive:LiftProj 35
CPXPARAM_MIP_Cuts_LiftProj-Gomory-Disjunctive:Gomory 0
CPXPARAM_MIP_Cuts_LiftProj-Gomory-Disjunctive:Disjunctive 0
Instance26
Gap
100.00%
100.00%
84.48%
68.92%
46.13%
42.55%
39.11%
34.25%
30.76%
29.45%
26.35%
21.07%
20.76%
18.37%
16.00%
14.85%
13.09%
11.59%
11.05%
8.60%
7.70%
7.05%
6.59%
6.31%
5.96%
4.29%
3.94%
3.63%
3.11%
3.08%
2.65%
2.54%
1.99%
1.80%
1.71%
1.71%
1.69%
1.69%
0.17%
0.02%
0.02%
0.01%
CPXPARAM_MIP_Cuts_LiftProj-Gomory-Disjunctive:LiftProj 6
CPXPARAM_MIP_Cuts_LiftProj-Gomory-Disjunctive:Gomory 1
CPXPARAM_MIP_Cuts_LiftProj-Gomory-Disjunctive:Disjunctive 0
Instance27
Gap
100.00%
100.00%
99.81%
99.61%
94.57%
62.90%
47.99%
44.40%
39.99%
37.58%
36.01%
35.51%
34.14%
32.44%
31.37%
29.14%
22.48%
21.96%
20.88%
18.64%
17.56%
15.04%
13.07%
12.85%
12.85%
12.61%
12.17%
12.09%
12.07%
12.04%
10.92%
10.90%
10.77%
10.66%
10.13%
9.68%
3.96%
3.95%
3.95%
0.81%
0.81%
0.81%
0.81%
CPXPARAM_MIP_Cuts_LiftProj-Gomory-Disjunctive:LiftProj 6
CPXPARAM_MIP_Cuts_LiftProj-Gomory-Disjunctive:Gomory 0
CPXPARAM_MIP_Cuts_LiftProj-Gomory-Disjunctive:Disjunctive 1
Instance28
Gap
100.00%
100.00%
100.00%
69.66%
56.59%
53.98%
52.53%
51.59%
45.75%
31.45%
29.65%
28.28%
27.71%
26.52%
25.68%
24.30%
23.82%
22.91%
22.65%
20.90%
20.49%
18.99%
15.91%
15.80%
15.74%
15.15%
11.53%
11.29%
10.96%
10.56%
10.02%
9.75%
8.89%
8.57%
8.49%
8.44%
8.24%
8.19%
7.86%
7.63%
7.53%
7.51%
7.49%
5.82%
5.80%
CPXPARAM_MIP_Cuts_LiftProj-Gomory-Disjunctive:LiftProj 28
CPXPARAM_MIP_Cuts_LiftProj-Gomory-Disjunctive:Gomory 0
CPXPARAM_MIP_Cuts_LiftProj-Gomory-Disjunctive:Disjunctive 0
Instance29
Gap
100.00%
100.00%
100.00%
100.00%
93.38%
75.08%
68.96%
62.69%
60.41%
58.71%
56.96%
54.97%
52.52%
48.25%
47.29%
46.65%
45.25%
44.20%
43.25%
42.76%
42.32%
41.51%
41.07%
40.89%
40.56%
39.67%
39.03%
38.88%
38.49%
38.30%
36.72%
36.53%
35.69%
35.38%
34.53%
33.97%
33.45%
32.83%
32.49%
32.40%
31.81%
31.55%
31.39%
31.30%
31.23%
31.17%
31.07%
30.94%
30.91%
30.87%
30.84%
30.72%
30.66%
30.61%
30.54%
30.49%
30.45%
30.41%
30.31%
30.29%
26.27%
CPXPARAM_MIP_Cuts_LiftProj-Gomory-Disjunctive:LiftProj 35
CPXPARAM_MIP_Cuts_LiftProj-Gomory-Disjunctive:Gomory 0
CPXPARAM_MIP_Cuts_LiftProj-Gomory-Disjunctive:Disjunctive 1
Instance30
Gap
100.00%
100.00%
69.10%
61.90%
52.32%
49.29%
43.06%
39.87%
33.16%
29.96%
28.61%
28.07%
22.97%
22.82%
20.74%
20.07%
19.59%
18.58%
13.29%
13.14%
12.78%
12.67%
12.32%
11.19%
11.00%
10.45%
9.05%
7.93%
7.26%
7.07%
6.77%
6.46%
6.07%
5.91%
5.81%
5.27%
2.80%
2.63%
2.56%
2.16%
2.08%
2.06%
2.03%
1.91%
CPXPARAM_MIP_Cuts_LiftProj-Gomory-Disjunctive:LiftProj 22
CPXPARAM_MIP_Cuts_LiftProj-Gomory-Disjunctive:Gomory 1
CPXPARAM_MIP_Cuts_LiftProj-Gomory-Disjunctive:Disjunctive 0
Instance31
Gap
100.00%
100.00%
99.75%
99.32%
88.94%
54.15%
52.72%
47.71%
43.31%
36.69%
31.16%
29.99%
25.42%
13.14%
11.41%
5.98%
3.40%
0.77%
0.77%
0.77%
0.77%
CPXPARAM_MIP_Cuts_LiftProj-Gomory-Disjunctive:LiftProj 1
CPXPARAM_MIP_Cuts_LiftProj-Gomory-Disjunctive:Gomory 0
CPXPARAM_MIP_Cuts_LiftProj-Gomory-Disjunctive:Disjunctive 1
Instance32
Gap
100.00%
100.00%
100.00%
69.77%
63.45%
56.85%
48.94%
45.60%
43.77%
43.72%
42.17%
39.96%
39.10%
38.85%
38.49%
38.17%
37.78%
37.11%
36.83%
36.08%
35.41%
34.89%
34.06%
33.68%
32.95%
32.70%
32.60%
32.15%
28.63%
28.22%
27.91%
27.55%
27.19%
26.78%
25.88%
25.14%
25.01%
24.87%
24.78%
21.32%
21.07%
21.04%
20.98%
20.80%
20.71%
20.52%
20.47%
20.26%
20.12%
20.08%
19.98%
19.75%
19.58%
13.65%
13.52%
13.26%
13.19%
13.10%
13.08%
13.05%
13.05%
CPXPARAM_MIP_Cuts_LiftProj-Gomory-Disjunctive:LiftProj 40
CPXPARAM_MIP_Cuts_LiftProj-Gomory-Disjunctive:Gomory 0
CPXPARAM_MIP_Cuts_LiftProj-Gomory-Disjunctive:Disjunctive 0
Instance33
Gap
100.00%
100.00%
100.00%
98.79%
91.93%
71.69%
66.09%
60.23%
44.17%
41.08%
39.04%
38.08%
36.87%
36.31%
35.59%
34.36%
33.15%
32.64%
32.07%
27.83%
27.58%
27.19%
26.64%
26.20%
24.08%
23.25%
21.84%
20.65%
19.57%
17.95%
17.41%
16.83%
16.57%
16.24%
15.97%
15.94%
15.44%
15.36%
15.20%
15.16%
15.15%
15.13%
8.28%
4.74%
CPXPARAM_MIP_Cuts_LiftProj-Gomory-Disjunctive:LiftProj 29
CPXPARAM_MIP_Cuts_LiftProj-Gomory-Disjunctive:Gomory 0
CPXPARAM_MIP_Cuts_LiftProj-Gomory-Disjunctive:Disjunctive 2
Instance34
Gap
100.00%
100.00%
66.38%
51.74%
38.34%
36.25%
27.69%
24.25%
23.95%
22.66%
20.59%
19.56%
18.77%
17.86%
17.71%
16.86%
16.43%
15.58%
15.46%
15.28%
15.05%
5.47%
5.40%
5.29%
5.23%
5.14%
4.75%
4.25%
4.18%
4.11%
3.94%
3.82%
3.51%
3.49%
3.37%
3.05%
2.77%
2.70%
2.64%
2.57%
2.55%
2.05%
2.05%
0.79%
0.77%
0.55%
0.51%
0.42%
0.41%
0.40%
0.39%
0.06%
CPXPARAM_MIP_Cuts_LiftProj-Gomory-Disjunctive:LiftProj 6
CPXPARAM_MIP_Cuts_LiftProj-Gomory-Disjunctive:Gomory 3
CPXPARAM_MIP_Cuts_LiftProj-Gomory-Disjunctive:Disjunctive 0
Instance35
Gap
100.00%
100.00%
99.38%
98.77%
87.79%
63.79%
51.08%
49.53%
31.85%
29.08%
26.46%
25.35%
20.00%
18.74%
17.68%
16.62%
16.17%
15.77%
15.01%
14.74%
14.28%
13.87%
12.03%
11.43%
10.47%
10.26%
9.92%
9.73%
9.71%
9.57%
9.48%
9.17%
9.05%
8.90%
8.86%
8.83%
8.82%
8.81%
5.94%
CPXPARAM_MIP_Cuts_LiftProj-Gomory-Disjunctive:LiftProj 21
CPXPARAM_MIP_Cuts_LiftProj-Gomory-Disjunctive:Gomory 3
CPXPARAM_MIP_Cuts_LiftProj-Gomory-Disjunctive:Disjunctive 1
Instance36
Gap
100.00%
100.00%
100.00%
85.27%
82.45%
71.06%
67.98%
62.62%
57.69%
54.44%
53.14%
50.28%
44.59%
43.20%
42.43%
41.44%
37.95%
36.72%
35.84%
34.09%
33.05%
32.20%
31.82%
31.33%
30.45%
29.62%
27.14%
26.62%
20.82%
20.23%
19.76%
19.44%
19.31%
19.02%
18.84%
18.64%
17.85%
17.41%
17.09%
17.06%
16.79%
12.44%
12.14%
11.92%
11.80%
11.45%
11.31%
11.28%
11.18%
11.14%
11.13%
10.88%
10.88%
CPXPARAM_MIP_Cuts_LiftProj-Gomory-Disjunctive:LiftProj 26
CPXPARAM_MIP_Cuts_LiftProj-Gomory-Disjunctive:Gomory 0
CPXPARAM_MIP_Cuts_LiftProj-Gomory-Disjunctive:Disjunctive 0
Instance37
Gap
100.00%
100.00%
100.00%
100.00%
100.00%
95.89%
77.74%
77.07%
74.64%
66.55%
65.21%
63.05%
62.22%
60.23%
58.76%
57.98%
57.03%
55.90%
55.07%
52.97%
52.47%
51.91%
51.50%
44.87%
43.80%
43.37%
42.75%
41.44%
38.74%
38.20%
36.01%
35.24%
34.17%
34.02%
33.32%
32.23%
32.10%
31.46%
30.91%
30.71%
29.76%
29.76%
29.71%
29.44%
29.39%
29.28%
28.93%
28.68%
28.60%
28.21%
27.99%
27.52%
27.52%
27.46%
27.37%
27.04%
26.94%
26.73%
26.57%
26.52%
26.45%
26.35%
26.33%
18.57%
CPXPARAM_MIP_Cuts_LiftProj-Gomory-Disjunctive:LiftProj 30
CPXPARAM_MIP_Cuts_LiftProj-Gomory-Disjunctive:Gomory 0
CPXPARAM_MIP_Cuts_LiftProj-Gomory-Disjunctive:Disjunctive 0
Instance38
Gap
100.00%
100.00%
78.46%
58.43%
34.01%
30.71%
26.85%
24.11%
23.79%
23.02%
20.88%
20.25%
16.39%
16.01%
14.59%
12.56%
12.15%
11.82%
9.65%
9.09%
8.39%
8.01%
7.75%
6.75%
6.27%
6.19%
5.89%
5.61%
5.40%
5.32%
5.05%
4.20%
3.98%
3.71%
3.67%
3.62%
3.54%
3.51%
3.47%
3.42%
3.29%
3.29%
1.37%
1.37%
1.18%
0.90%
0.83%
0.77%
0.77%
0.72%
0.72%
0.52%
CPXPARAM_MIP_Cuts_LiftProj-Gomory-Disjunctive:LiftProj 12
CPXPARAM_MIP_Cuts_LiftProj-Gomory-Disjunctive:Gomory 3
CPXPARAM_MIP_Cuts_LiftProj-Gomory-Disjunctive:Disjunctive 0
Instance39
Gap
100.00%
100.00%
99.77%
99.55%
93.77%
69.21%
62.12%
54.68%
50.66%
49.43%
44.11%
40.26%
38.21%
35.18%
34.22%
32.26%
27.53%
20.82%
20.61%
19.45%
19.26%
19.12%
18.98%
18.74%
17.35%
17.15%
16.83%
16.14%
15.72%
13.70%
10.60%
8.73%
8.21%
8.10%
7.95%
7.95%
7.86%
6.36%
6.08%
5.83%
5.60%
4.81%
4.23%
3.72%
3.67%
3.67%
3.21%
3.19%
3.19%
2.36%
2.36%
2.36%
0.00%
CPXPARAM_MIP_Cuts_LiftProj-Gomory-Disjunctive:LiftProj 7
CPXPARAM_MIP_Cuts_LiftProj-Gomory-Disjunctive:Gomory 2
CPXPARAM_MIP_Cuts_LiftProj-Gomory-Disjunctive:Disjunctive 1
